unsat
(:added-eqs                   5366
 :arith-eq-adapter            144
 :arith-bound-propagations-lp 2138
 :arith-branch                3332
 :arith-conflicts             3048
 :arith-cube-calls            1610
 :arith-diseq                 2831
 :arith-fixed-eqs             2083
 :arith-gcd-calls             6484
 :arith-gcd-conflict          37
 :arith-gomory-cuts           4830
 :arith-hnf-calls             11
 :arith-lower                 80570
 :arith-make-feasible         30386
 :arith-max-columns           112
 :arith-max-rows              69
 :arith-nla-propagate-bounds  5
 :arith-offset-eqs            829
 :arith-patches               6447
 :arith-patches-success       5
 :arith-upper                 84906
 :binary-propagations         118816
 :conflicts                   3070
 :decisions                   15351
 :del-clause                  5462
 :final-checks                6484
 :max-memory                  23.27
 :memory                      17.94
 :minimized-lits              149
 :mk-bool-var                 8235
 :mk-clause                   6411
 :mk-clause-binary            6034
 :num-allocs                  2299893042
 :num-checks                  1
 :propagations                148778
 :restarts                    25
 :rlimit-count                1209679
 :time                        2.89
 :total-time                  2.83)
